(set-logic ALL)
(set-option :produce-models true)
(declare-sort BoundSet 0)
(declare-sort UnboundSet 0)
(declare-fun IsBearded (BoundSet) Bool)
(declare-fun SitsNear (BoundSet BoundSet) Bool)
(declare-fun IsSittingOutside (BoundSet) Bool)
(assert (not (=> (and (exists ((a BoundSet)) (exists ((b BoundSet)) (and (IsBearded a) (SitsNear a b)))) (and (forall ((g BoundSet)) (forall ((e BoundSet)) (forall ((f BoundSet)) (=> (IsBearded e) (SitsNear f g))))) (and (forall ((i BoundSet)) (forall ((h BoundSet)) (forall ((j BoundSet)) (=> (SitsNear h i) (IsSittingOutside j))))) (forall ((k BoundSet)) (forall ((m BoundSet)) (forall ((l BoundSet)) (=> (IsSittingOutside k) (SitsNear l m)))))))) (exists ((c BoundSet)) (exists ((d BoundSet)) (and (IsSittingOutside c) (SitsNear c d)))))))
(check-sat)
(get-model)